Solving original (integer) problem with strategy gdp.hull...
--- Job model.gms Start 02/14/26 17:12:28 52.2.0 d8e408be LEX-LEG x86 64bit/Linux
--- Applying:
    /package/gams/52.2/gmsprmun.txt
--- GAMS Parameters defined
    Input /local/scratch/a/sgusev/repos/k_means/data/gams_gurobi_gdp.hull/no_mode/2026-02-14_17-12-28/original/model.gms
    Output /local/scratch/a/sgusev/repos/k_means/data/gams_gurobi_gdp.hull/no_mode/2026-02-14_17-12-28/original/output.lst
    ScrDir /local/scratch/a/sgusev/repos/k_means/data/gams_gurobi_gdp.hull/no_mode/2026-02-14_17-12-28/original/225a/
    SysDir /package/gams/52.2/
    CurDir /local/scratch/a/sgusev/repos/k_means/data/gams_gurobi_gdp.hull/no_mode/2026-02-14_17-12-28/original/
    LogOption 3
    AppendLog 1
Licensee: David Bernal / SECQUOIA Research Group         G251008+0003Ac-GEN
          Purdue University, Davidson School of Chemical EngineeringDCE4838
          225a/gamslice.dat
          5a82958a-fbca-4a23
          node:66820903 mem:995 cores:48 ipport:50049 v:2                  
          Evaluation license: Not for commercial or production use
          The time-limited license stops working on : Jun 30, 2027
System information: 48 physical cores and 995 Gb physical memory detected
GAMS 52.2.0   Copyright (C) 1987-2025 GAMS Development. All rights reserved
--- Starting compilation
--- model.gms(1681) 2 Mb
--- $echo File /local/scratch/a/sgusev/repos/k_means/data/gams_gurobi_gdp.hull/no_mode/2026-02-14_17-12-28/original/gurobi.opt
--- model.gms(2510) 2 Mb
--- Starting execution: elapsed 0:00:00.012
--- model.gms(1690) 3 Mb
--- Generating MINLP model GAMS_MODEL
--- model.gms(1694) 5 Mb
---   504 rows  259 columns  1,227 non-zeroes
---   1,240 nl-code  160 nl-non-zeroes
---   40 discrete-columns
--- Range statistics (absolute non-zero finite values)
--- RHS       [min, max] : [ 2.955E-06, 1.000E+00] - Zero values observed as well
--- Bound     [min, max] : [ 1.000E+00, 4.000E+01] - Zero values observed as well
--- Matrix    [min, max] : [ 2.955E-02, 4.000E+01]
--- model.gms(1694) 3 Mb
--- Executing GUROBI (Solvelink=5): elapsed 0:00:00.016
Reading parameter(s) from "/local/scratch/a/sgusev/repos/k_means/data/gams_gurobi_gdp.hull/no_mode/2026-02-14_17-12-28/original/gurobi.opt"
>>  NonConvex 2
>>  Threads 1
>>  MIPGap 1e-06
>>  MIPGapAbs 1e-10
>>  FeasibilityTol 1e-06
>>  OptimalityTol 1e-06
>>  IntFeasTol 1e-05
Finished reading from "/local/scratch/a/sgusev/repos/k_means/data/gams_gurobi_gdp.hull/no_mode/2026-02-14_17-12-28/original/gurobi.opt"

... GRB_LICENSE_FILE = /local/scratch/a/sgusev/gurobi.lic

    Gurobi           52.2.0 d8e408be Dec 8, 2025           LEG x86 64bit/Linux    

... GAMS/Gurobi Link license.
... GMO Q Extraction (ThreePass): 0.00s

    Gurobi Optimizer version 13.0.0 build v13.0.0rc1 (linux64 - "Oracle Linux Server 9.7")
    
    CPU model: AMD EPYC 7643 48-Core Processor, instruction set [SSE2|AVX|AVX2]
    Thread count: 48 physical cores, 96 logical processors, using up to 1 threads
    
    Non-default parameters:
    TimeLimit  300
    MIPGap  1e-06
    LogToConsole  0
    NonConvex  2
    Threads  1
    
    Optimize a model with 503 rows, 298 columns and 1096 nonzeros (Min)
    Model fingerprint: 0xfd712b90
    Model has 10 linear objective coefficients
    Model has 40 general nonlinear constraints (240 nonlinear terms)
    Variable types: 258 continuous, 40 integer (0 binary)
    Coefficient statistics:
      Matrix range     [1e+00, 4e+01]
      Objective range  [1e+00, 1e+00]
      Bounds range     [1e+00, 4e+01]
      RHS range        [1e+00, 1e+00]
      NLCon coe range  [3e-06, 1e+00]
    Presolve model has 40 nlconstr
    Added 520 variables to disaggregate expressions
    Presolve removed 120 rows and 90 columns
    Presolve time: 0.00s
    Presolved: 1583 rows, 729 columns, 4046 nonzeros
    Presolved model has 240 bilinear constraint(s)
    
    Solving non-convex MIQCP to global optimality
    
    Variable types: 689 continuous, 40 integer (40 binary)
    Found heuristic solution: objective 5.4016623
    
    Root relaxation: objective 0.000000e+00, 242 iterations, 0.00 seconds (0.00 work units)
    
        Nodes    |    Current Node    |     Objective Bounds      |     Work
     Expl Unexpl |  Obj  Depth IntInf | Incumbent    BestBd   Gap | It/Node Time
    
         0     0    0.00000    0  120    5.40166    0.00000   100%     -    0s
         0     0    0.00000    0  120    5.40166    0.00000   100%     -    0s
         0     0    0.00000    0   78    5.40166    0.00000   100%     -    0s
         0     0    0.00000    0   45    5.40166    0.00000   100%     -    0s
         0     0    0.00000    0   45    5.40166    0.00000   100%     -    0s
         0     0    0.00000    0   38    5.40166    0.00000   100%     -    0s
         0     0    0.00000    0   60    5.40166    0.00000   100%     -    0s
         0     0    0.00000    0   80    5.40166    0.00000   100%     -    0s
         0     0    0.00000    0   80    5.40166    0.00000   100%     -    0s
         0     0    0.00000    0   41    5.40166    0.00000   100%     -    0s
         0     0    0.00000    0   41    5.40166    0.00000   100%     -    0s
    H    0     0                       4.6774350    0.00000   100%     -    0s
    H    0     0                       4.6470806    0.00000   100%     -    0s
    H    0     0                       4.2043323    0.00000   100%     -    0s
         0     2    0.00000    0   41    4.20433    0.00000   100%     -    0s
    H    6     6                       4.1825478    0.00000   100%  18.7    0s
    H    7     7                       4.0825481    0.00000   100%  19.7    0s
    H   10    10                       2.4746315    0.00000   100%  15.6    0s
    H   31    31                       2.1433639    0.00000   100%  13.6    0s
    H   35    35                       2.0940059    0.00000   100%  12.7    0s
    H   35    35                       2.0198091    0.00000   100%  12.7    0s
    H   62    54                       2.0198091    0.00000   100%   9.5    0s
    H  172   133                       1.9207642    0.00000   100%  10.0    0s
    H  175   136                       1.8944783    0.00000   100%  10.0    0s
    H  177   133                       1.6935445    0.00000   100%  10.0    0s
    H  196   130                       1.5917399    0.00000   100%   9.7    0s
    H  222   140                       1.5917399    0.00000   100%   9.1    0s
    H  446   180                       1.3458137    0.00000   100%  10.6    0s
    H  455   147                       1.0127172    0.00000   100%  10.6    0s
    H  456   148                       1.0127172    0.00000   100%  10.6    0s
    H  458   150                       1.0127172    0.00000   100%  10.6    0s
    H  684   273                       0.7329192    0.00000   100%  11.4    1s
    H  691   264                       0.7295411    0.00000   100%  13.8    1s
    H  693   251                       0.7218383    0.00000   100%  13.7    1s
    H  693   239                       0.7189688    0.00000   100%  13.7    1s
    H  693   226                       0.7183249    0.00000   100%  13.7    1s
    H  695   217                       0.7164939    0.00000   100%  13.8    1s
    H  695   206                       0.7140250    0.00000   100%  13.8    1s
    H  695   195                       0.7138292    0.00000   100%  13.8    1s
    H  699   188                       0.6973967    0.00000   100%  13.9    1s
    H  699   178                       0.6958713    0.00000   100%  13.9    1s
    H  701   171                       0.6958705    0.00000   100%  13.9    1s
    H  785   174                       0.6200935    0.00000   100%  13.7    1s
    H  785   166                       0.6200935    0.00000   100%  13.7    1s
    H  785   158                       0.6148314    0.00000   100%  13.7    1s
    H  785   151                       0.6122480    0.00000   100%  13.7    1s
    H  785   144                       0.6068692    0.00000   100%  13.7    1s
    H  793   135                       0.6048620    0.00000   100%  13.7    1s
    H  928   154                       0.6030661    0.00000   100%  12.8    2s
    H 1044   174                       0.6004640    0.00000   100%  13.3    2s
    H 1093   197                       0.6004614    0.00000   100%  13.1    2s
    H 1265   265                       0.5998343    0.00000   100%  12.6    2s
    H 1265   265                       0.5998073    0.00000   100%  12.6    2s
    H 1265   265                       0.5997450    0.00000   100%  12.6    2s
    H 1265   265                       0.5997433    0.00000   100%  12.6    2s
    H 1343   281                       0.5997426    0.00000   100%  12.4    2s
    H 1555   335                       0.5997420    0.00000   100%  12.2    2s
    H 1555   335                       0.5997417    0.00000   100%  12.2    2s
      5333   486    0.48463   36   14    0.59974    0.38880  35.2%   9.9    5s
    H 6312   368                       0.5997405    0.40721  32.1%  10.0    5s
    H 7312   308                       0.5997399    0.44306  26.1%   9.3    6s
     16356  1937    0.59888   66   10    0.59974    0.55267  7.85%   5.7   10s
    *21776  2609              99       0.5997370    0.56841  5.22%   4.9   11s
     29732  3485    0.59110   69    4    0.59974    0.57465  4.18%   4.1   15s
     44170  3361    0.59668   72    8    0.59974    0.58705  2.12%   3.4   20s
    *50832  3345             106       0.5997338    0.59360  1.02%   3.2   22s
     56948  2811    0.59870   74   10    0.59973    0.59766  0.35%   3.0   25s
     68712  2649    0.59962   74    6    0.59973    0.59918  0.09%   2.7   30s
     83334  1292    0.59971   94   13    0.59973    0.59963  0.02%   2.5   35s
    
    Cutting planes:
      Learned: 39
      Gomory: 4
      Implied bound: 11
      MIR: 3
      Flow cover: 31
      RLT: 9
      Relax-and-lift: 9
    
    Explored 88713 nodes (215998 simplex iterations) in 36.95 seconds (26.79 work units)
    Thread count was 1 (of 96 available processors)
    
    Solution count 10: 0.599734 0.599734 0.599737 ... 0.599745
    
    Optimal solution found (tolerance 1.00e-06)
    Warning: max constraint violation (1.5764e-06) exceeds tolerance
    Warning: max general constraint violation (1.5764e-06) exceeds tolerance
    Best objective 5.997337899071e-01, best bound 5.997332580453e-01, gap 0.0001%
    
    User-callback calls 88765, time in user-callback 0.00 sec

... Solving fixed model...

    Gurobi Optimizer version 13.0.0 build v13.0.0rc1 (linux64 - "Oracle Linux Server 9.7")
    
    CPU model: AMD EPYC 7643 48-Core Processor, instruction set [SSE2|AVX|AVX2]
    Thread count: 48 physical cores, 96 logical processors, using up to 1 threads
    
    Non-default parameters:
    TimeLimit  300
    MIPGap  1e-06
    LogToConsole  0
    NonConvex  2
    Threads  1
    
    Optimize a model with 503 rows, 298 columns and 1096 nonzeros (Min)
    Model fingerprint: 0xcb41bfd3
    Model has 10 linear objective coefficients
    Coefficient statistics:
      Matrix range     [1e+00, 4e+01]
      Objective range  [1e+00, 1e+00]
      Bounds range     [6e-03, 4e+01]
      RHS range        [1e+00, 1e+00]
    Presolve removed 503 rows and 298 columns
    Presolve time: 0.00s
    Presolve: All rows and columns removed
    Iteration    Objective       Primal Inf.    Dual Inf.      Time
           0    5.9973379e-01   0.000000e+00   0.000000e+00      0s
    
    Solved in 0 iterations and 0.00 seconds (0.00 work units)
    Optimal objective  5.997337893e-01
    
    User-callback calls 0, time in user-callback 0.00 sec

--- Reading solution for model GAMS_MODEL
***
*** Solver did not provide marginals for model GAMS_MODEL
***
--- Executing after solve: elapsed 0:00:36.998
--- model.gms(1697) 3 Mb
--- model.gms(2510) 5 Mb
--- Putfile results /local/scratch/a/sgusev/repos/k_means/data/gams_gurobi_gdp.hull/no_mode/2026-02-14_17-12-28/original/results.dat
--- Putfile statresults /local/scratch/a/sgusev/repos/k_means/data/gams_gurobi_gdp.hull/no_mode/2026-02-14_17-12-28/original/resultsstat.dat
*** Status: Normal completion
--- Job model.gms Stop 02/14/26 17:13:05 elapsed 0:00:36.999
Original problem solved. Time taken: 37.622255086898804 seconds
Original objective value: 0.599733789253186
